proyfinal/src/viki/013/andrea/andrea-localstore/experimentInOfficeAgust.take6/worker_9/156a12bb-f20e-4a43-b664-3dfdfc6407ac.als.cnf.out
Reading from standard input... Use '--help' for help.
============================[ Problem Statistics ]=============================
|                                                                             |
|  Number of variables:         87638                                         |
|  Number of clauses:          161767                                         |
|  Parse time:                   0.03 s                                       |
|                                                                             |
============================[ Search Statistics ]==============================
| Conflicts |          ORIGINAL         |          LEARNT          | Progress |
|           |    Vars  Clauses Literals |    Limit  Clauses Lit/Cl |          |
===============================================================================
|       100 |   63263   108318   270800 |    39716      100     25 | 27.813 % |
|       250 |   63262   108274   270710 |    43688      249     70 | 27.814 % |
|       475 |   63262   108274   270710 |    48057      474     66 | 27.814 % |
|       812 |   63262   108274   270710 |    52862      811     54 | 27.814 % |
|      1318 |   63262   108274   270710 |    58149     1317     90 | 27.814 % |
|      2077 |   63262   108274   270710 |    63963     2076     86 | 27.814 % |
|      3216 |   63262   108274   270710 |    70360     3215     86 | 27.814 % |
|      4924 |   63262   108274   270710 |    77396     4923     87 | 27.814 % |
|      7486 |   63262   108274   270710 |    85136     7485     78 | 27.814 % |
|     11330 |   63236   108131   270398 |    93649    10817     78 | 27.844 % |
===============================================================================
restarts              : 53
conflicts             : 12334          (5738 /sec)
decisions             : 45434          (0.00 % random) (21136 /sec)
propagations          : 19283306       (8970699 /sec)
conflict literals     : 959641         (56.64 % deleted)
Memory used           : 26.30 MB
CPU time              : 2.14959 s

INDETERMINATE
